============================[ Problem Statistics ]=============================|                                                                             ||  Number of variables:          4242                                         ||  Number of clauses:           10051                                         ||  Parse time:                   0.44 s                                       ||                                                                             |============================[ Search Statistics ]==============================| Conflicts |          ORIGINAL         |          LEARNT          | Progress ||           |    Vars  Clauses Literals |    Limit  Clauses Lit/Cl |          |===============================================================================|       100 |    1591     6256   700697 |     2293      100     53 | 62.501 % ||       250 |    1591     6256   700697 |     2523      250     75 | 62.495 % |===============================================================================restarts              : 3conflicts             : 250            (375 /sec)decisions             : 518            (0.00 % random) (778 /sec)propagations          : 11755          (17650 /sec)conflict literals     : 18870          (94.90 % deleted)CPU time              : 0.666 sSATISFIABLE